-38 6 40 -24 26 -24 0
8 26 6 -40 -24 0
36 -27 -24 46 18 -38 -24 0
36 6 -24 -13 -8 -38 -3 -24 0
-24 13 -40 -24 0
-24 -38 26 6 -24 0
38 6 -24 -40 26 -24 0
40 -24 -3 6 -24 0
-16 11 7 -24 0
-39 27 4 -37 -24 0
-24 0
8 26 -29 -40 24 0
-31 1 -29 38 26 24 0
38 45 46 18 24 31 24 0
1 -46 38 -9 24 0
-29 38 -8 18 -40 24 26 24 0
-29 38 -18 24 26 24 0
-29 38 18 -40 24 26 24 0
38 8 16 -13 -10 24 0
-29 38 8 9 -10 -39 31 24 0
-29 38 8 40 18 24 0
-31 26 -29 38 24 0
-29 -27 38 9 44 45 -46 -8 24 0
24 26 38 24 0
40 24 -38 24 0
8 48 26 -40 24 0
-38 -18 -8 24 26 24 0
-8 9 -38 36 24 0
24 0
0
